Instance name: /home/cuong/CLionProjects/uMV-FSTSP/50_dis_rand_ins/v56
Write arg val: 1

drone speed: 1 miles/minute
uav non-eligible customer: 11 
Printing tau:
0 15.8133 43.8429 42.4612 44.354 39.3058 47.4963 58.0356 49.0688 98.7018 87.3698 0 
15.8133 0 50.4645 49.0827 28.5407 23.4925 31.683 51.4141 42.4473 82.8885 71.5565 15.8133 
43.8429 50.4645 0 9.33925 39.5973 44.341 34.6218 101.879 92.9118 66.346 55.014 43.8429 
42.4612 49.0827 9.33925 0 38.2155 42.9592 33.2401 100.497 91.5301 57.0068 47.6724 42.4612 
44.354 28.5407 39.5973 38.2155 0 5.04817 4.97544 62.2813 53.3145 54.3478 43.0158 44.354 
39.3058 23.4925 44.341 42.9592 5.04817 0 9.71915 57.5376 48.5708 59.396 48.064 39.3058 
47.4963 31.683 34.6218 33.2401 4.97544 9.71915 0 67.2568 58.29 51.2055 39.8735 47.4963 
58.0356 51.4141 101.879 100.497 62.2813 57.5376 67.2568 0 8.9668 68.5863 52.8245 58.0356 
49.0688 42.4473 92.9118 91.5301 53.3145 48.5708 58.29 8.9668 0 60.8798 49.5478 49.0688 
98.7018 82.8885 66.346 57.0068 54.3478 59.396 51.2055 68.5863 60.8798 0 15.7618 98.7018 
87.3698 71.5565 55.014 47.6724 43.0158 48.064 39.8735 52.8245 49.5478 15.7618 0 87.3698 
0 0 0 0 0 0 0 0 0 0 0 0 
Printing tau_prime:
0 4.5459 14.4487 15.7799 11.8149 10.4234 12.8295 18.5451 16.4279 26.3214 23.2086 0 
4.5459 0 14.082 14.7136 8.09803 6.43753 9.39299 14.9585 12.6785 22.4458 18.978 4.5459 
14.4487 14.082 0 2.5034 10.9712 11.9012 10.02 27.0725 24.6796 19.6833 19.5447 14.4487 
15.7799 14.7136 2.5034 0 10.1579 11.4089 8.94734 26.6576 24.2923 17.3233 17.5066 15.7799 
11.8149 8.09803 10.9712 10.1579 0 1.83687 1.56041 16.5751 14.2429 14.5078 11.6787 11.8149 
10.4234 6.43753 11.9012 11.4089 1.83687 0 3.37027 15.2571 12.8853 16.0199 12.806 10.4234 
12.8295 9.39299 10.02 8.94734 1.56041 3.37027 0 17.975 15.6679 13.5825 11.2443 12.8295 
18.5451 14.9585 27.0725 26.6576 16.5751 15.2571 17.975 0 2.39908 24.1068 18.9873 18.5451 
16.4279 12.6785 24.6796 24.2923 14.2429 12.8853 15.6679 2.39908 0 22.5949 17.546 16.4279 
26.3214 22.4458 19.6833 17.3233 14.5078 16.0199 13.5825 24.1068 22.5949 0 5.14754 26.3214 
23.2086 18.978 19.5447 17.5066 11.6787 12.806 11.2443 18.9873 17.546 5.14754 0 23.2086 
0 0 0 0 0 0 0 0 0 0 0 0 
Version identifier: 22.1.1.0 | 2022-11-28 | 9160aff4d
CPXPARAM_MIP_Tolerances_Integrality              0
Tried aggregator 1 time.
MIP Presolve eliminated 1 rows and 12 columns.
MIP Presolve modified 20 coefficients.
Reduced MIP has 122 rows, 120 columns, and 510 nonzeros.
Reduced MIP has 110 binaries, 0 generals, 0 SOSs, and 0 indicators.
Presolve time = 0.00 sec. (0.27 ticks)
Found incumbent of value 563.855350 after 0.00 sec. (0.75 ticks)
Probing time = 0.00 sec. (0.26 ticks)
Cover probing fixed 0 vars, tightened 10 bounds.
Tried aggregator 1 time.
Detecting symmetries...
MIP Presolve eliminated 10 rows and 0 columns.
MIP Presolve modified 180 coefficients.
Reduced MIP has 112 rows, 120 columns, and 490 nonzeros.
Reduced MIP has 110 binaries, 0 generals, 0 SOSs, and 0 indicators.
Presolve time = 0.00 sec. (0.35 ticks)
Probing time = 0.00 sec. (0.26 ticks)
Clique table members: 67.
MIP emphasis: balance optimality and feasibility.
MIP search method: dynamic search.
Parallel mode: deterministic, using up to 20 threads.
Root relaxation solution time = 0.00 sec. (0.21 ticks)

        Nodes                                         Cuts/
   Node  Left     Objective  IInf  Best Integer    Best Bound    ItCnt     Gap

*     0+    0                          563.8554        0.0000           100.00%
      0     0      147.0754    20      563.8554      147.0754       25   73.92%
*     0+    0                          297.3457      147.0754            50.54%
      0     0      265.7454    22      297.3457      Cuts: 27       45   10.63%
*     0+    0                          286.1110      265.7454             7.12%
      0     0      265.7454     6      286.1110      Cuts: 47       59    7.12%
*     0+    0                          276.9192      265.7454             4.04%
      0     0        cutoff            276.9192      276.9192       59    0.00%
Elapsed time = 0.01 sec. (4.94 ticks, tree = 0.01 MB, solutions = 4)

Clique cuts applied:  4
Implied bound cuts applied:  4
Mixed integer rounding cuts applied:  3
Multi commodity flow cuts applied:  11
Gomory fractional cuts applied:  2

Root node processing (before b&c):
  Real time             =    0.01 sec. (4.95 ticks)
Parallel b&c, 20 threads:
  Real time             =    0.00 sec. (0.00 ticks)
  Sync time (average)   =    0.00 sec.
  Wait time (average)   =    0.00 sec.
                          ------------
Total (root+branch&cut) =    0.01 sec. (4.95 ticks)

TSP solution for this instance: 0 8 7 10 9 3 2 6 4 5 1 11 
12
Warmstart X[1][0] == 1
Warmstart X[2][8] == 1
Warmstart X[3][7] == 1
Warmstart X[4][10] == 1
Warmstart X[5][9] == 1
Warmstart X[6][3] == 1
Warmstart X[7][2] == 1
Warmstart X[8][6] == 1
Warmstart X[9][4] == 1
Warmstart X[10][5] == 1
Warmstart X[11][1] == 1
---------------------------------------------
Calculate max stage gap for sortie.... 
Stage gap of 4 with smallest length = 19.9018 violated endurance constraint!
---------------------------------------------
Variable z[1][5] was set to 0.
Variable z[1][6] was set to 0.
Variable z[1][7] was set to 0.
Variable z[1][8] was set to 0.
Variable z[1][9] was set to 0.
Variable z[1][10] was set to 0.
Variable z[1][11] was set to 0.
Variable z[1][12] was set to 0.
Variable z[2][6] was set to 0.
Variable z[2][7] was set to 0.
Variable z[2][8] was set to 0.
Variable z[2][9] was set to 0.
Variable z[2][10] was set to 0.
Variable z[2][11] was set to 0.
Variable z[2][12] was set to 0.
Variable z[3][7] was set to 0.
Variable z[3][8] was set to 0.
Variable z[3][9] was set to 0.
Variable z[3][10] was set to 0.
Variable z[3][11] was set to 0.
Variable z[3][12] was set to 0.
Variable z[4][8] was set to 0.
Variable z[4][9] was set to 0.
Variable z[4][10] was set to 0.
Variable z[4][11] was set to 0.
Variable z[4][12] was set to 0.
Variable z[5][9] was set to 0.
Variable z[5][10] was set to 0.
Variable z[5][11] was set to 0.
Variable z[5][12] was set to 0.
Variable z[6][10] was set to 0.
Variable z[6][11] was set to 0.
Variable z[6][12] was set to 0.
Variable z[7][11] was set to 0.
Variable z[7][12] was set to 0.
Variable z[8][12] was set to 0.
Num constraint added = 5940
Warning:  Output names have been modified due to duplicate names or characters invalid in LP format.
Version identifier: 22.1.1.0 | 2022-11-28 | 9160aff4d
CPXPARAM_TimeLimit                               200
CPXPARAM_MIP_Tolerances_Integrality              0
1 of 1 MIP starts provided solutions.
MIP start 'm1' defined initial solution with objective 276.9192.
Tried aggregator 2 times.
MIP Presolve eliminated 7391 rows and 1952 columns.
MIP Presolve modified 2400 coefficients.
Aggregator did 34 substitutions.
Reduced MIP has 1434 rows, 2790 columns, and 55356 nonzeros.
Reduced MIP has 2769 binaries, 0 generals, 0 SOSs, and 0 indicators.
Presolve time = 0.07 sec. (204.14 ticks)
Probing fixed 253 vars, tightened 0 bounds.
Probing changed sense of 4 constraints.
Probing time = 0.04 sec. (89.82 ticks)
Tried aggregator 2 times.
MIP Presolve eliminated 51 rows and 265 columns.
MIP Presolve modified 154 coefficients.
Aggregator did 26 substitutions.
Reduced MIP has 1357 rows, 2499 columns, and 47966 nonzeros.
Reduced MIP has 2478 binaries, 0 generals, 0 SOSs, and 0 indicators.
Presolve time = 0.07 sec. (125.38 ticks)
Probing time = 0.00 sec. (5.45 ticks)
Tried aggregator 1 time.
Detecting symmetries...
Reduced MIP has 1357 rows, 2499 columns, and 47966 nonzeros.
Reduced MIP has 2478 binaries, 0 generals, 0 SOSs, and 0 indicators.
Presolve time = 0.02 sec. (43.56 ticks)
Probing time = 0.00 sec. (5.45 ticks)
Clique table members: 11143.
MIP emphasis: balance optimality and feasibility.
MIP search method: dynamic search.
Parallel mode: deterministic, using up to 20 threads.
Root relaxation solution time = 0.14 sec. (291.74 ticks)

        Nodes                                         Cuts/
   Node  Left     Objective  IInf  Best Integer    Best Bound    ItCnt     Gap

*     0+    0                          276.9192       15.8133            94.29%
      0     0      127.0364   279      276.9192      127.0364       35   54.13%
      0     0      180.6170   189      276.9192      Cuts: 42     2509   34.78%
      0     0      184.4478   293      276.9192      Cuts: 52     4358   33.39%
      0     0      184.6384   344      276.9192      Cuts: 21     6310   33.32%
      0     0      184.6780   366      276.9192      Cuts: 12     7177   33.31%
      0     0      184.8077   397      276.9192       Cuts: 7     8380   33.26%
Detecting symmetries...
      0     0      185.3714   391      276.9192  ZeroHalf: 23     9938   33.06%
      0     0      185.5125   414      276.9192       Cuts: 9    10346   33.01%
      0     0      185.5213   421      276.9192       Cuts: 4    10659   33.01%
      0     0      185.5249   433      276.9192       Cuts: 4    10753   33.00%
Detecting symmetries...
      0     2      185.5249   433      276.9192      185.5249    10753   33.00%
Elapsed time = 2.34 sec. (4771.52 ticks, tree = 0.02 MB, solutions = 1)
     31     7      236.8683   160      276.9192      185.5261    15742   33.00%
    168    10      188.6359   204      276.9192      185.9366    34372   32.86%
    482    93      236.7879   150      276.9192      189.9457    77542   31.41%
    902   287      257.2523   132      276.9192      189.9457   138517   31.41%
   1233   425      237.4065   159      276.9192      191.2132   191988   30.95%
   1388   514      247.8645   296      276.9192      191.2132   233507   30.95%
   1432   555        cutoff            276.9192      191.2132   272262   30.95%
   1566   568      223.3123   255      276.9192      191.2132   294895   30.95%
   1803   678      222.9200   292      276.9192      191.2132   335173   30.95%
   2617  1244      253.0915   139      276.9192      199.2595   535915   28.04%
Elapsed time = 5.24 sec. (7914.96 ticks, tree = 1.39 MB, solutions = 1)
   3970  1992        cutoff            276.9192      201.2932   785367   27.31%
   5082  2624      269.3429   134      276.9192      201.4079  1011308   27.27%
   6314  3385      250.3183   161      276.9192      219.9153  1288232   20.59%

Performing restart 1

Repeating presolve.
Tried aggregator 1 time.
MIP Presolve eliminated 39 rows and 37 columns.
MIP Presolve modified 7890 coefficients.
Reduced MIP has 1318 rows, 2462 columns, and 39329 nonzeros.
Reduced MIP has 2441 binaries, 0 generals, 0 SOSs, and 0 indicators.
Presolve time = 0.03 sec. (58.16 ticks)
Tried aggregator 1 time.
MIP Presolve eliminated 0 rows and 17 columns.
MIP Presolve modified 101 coefficients.
Reduced MIP has 1318 rows, 2445 columns, and 39179 nonzeros.
Reduced MIP has 2424 binaries, 0 generals, 0 SOSs, and 0 indicators.
Presolve time = 0.02 sec. (46.81 ticks)
Represolve time = 0.11 sec. (176.34 ticks)
   7106     0      185.7094   430      276.9192      Cuts: 31  1476724   18.59%
   7106     0      185.7338   415      276.9192      Cuts: 20  1477053   18.59%
   7106     0      185.7918   437      276.9192      Cuts: 29  1477559   18.59%
   7106     0      185.8363   444      276.9192      Cuts: 26  1477943   18.59%
   7106     0      185.8749   472      276.9192      Cuts: 30  1478366   18.59%
   7106     2      185.8749   472      276.9192      225.4317  1478366   18.59%
   7107     3      186.7990   346      276.9192      225.4317  1479585   18.59%
   7108     2      231.3613   198      276.9192      225.4317  1481947   18.59%
   7113     6      228.3937   104      276.9192      225.4317  1492548   18.59%
   7129     9      236.5683    93      276.9192      225.4317  1501646   18.59%
   7174    12        cutoff            276.9192      225.4317  1521776   18.59%
   7261    11      230.1710   170      276.9192      225.4317  1538967   18.59%
Elapsed time = 17.30 sec. (27672.22 ticks, tree = 0.03 MB, solutions = 1)
   7518    29        cutoff            276.9192      225.4317  1572036   18.59%
   7712    11      257.3628   121      276.9192      225.4317  1611276   18.59%
   7981    32        cutoff            276.9192      225.4317  1634897   18.59%
   8677   372        cutoff            276.9192      225.4317  1711125   18.59%
   9254   222      276.0288   119      276.9192      225.4317  1808016   18.59%
   9763    92      250.9576   132      276.9192      225.4317  1859561   18.59%
  10088    14        cutoff            276.9192      225.4317  1941392   18.59%
  10295    22      242.3035    63      276.9192      225.4317  1960386   18.59%
  10609    23        cutoff            276.9192      225.4317  2025667   18.59%
  10744    17      218.7983   200      276.9192      225.4317  2040925   18.59%
Elapsed time = 26.76 sec. (37296.25 ticks, tree = 0.16 MB, solutions = 1)
  10799     6        cutoff            276.9192      225.4317  2072485   18.59%
  10841    23      223.6300   204      276.9192      225.4317  2079157   18.59%
  10893    10        cutoff            276.9192      225.4317  2102218   18.59%
  10923    17      237.0049   190      276.9192      229.1066  2105262   17.27%

GUB cover cuts applied:  9
Clique cuts applied:  1
Cover cuts applied:  4
Mixed integer rounding cuts applied:  2
Zero-half cuts applied:  24
Lift and project cuts applied:  9
Gomory fractional cuts applied:  3

Root node processing (before b&c):
  Real time             =    2.29 sec. (4675.40 ticks)
Parallel b&c, 20 threads:
  Real time             =   27.09 sec. (37383.31 ticks)
  Sync time (average)   =   12.24 sec.
  Wait time (average)   =    0.01 sec.
                          ------------
Total (root+branch&cut) =   29.38 sec. (42058.71 ticks)
Feasible solution found!
Truck nodes:
Stage 1 at customer 0 with arrival time is: 0
Stage 1 at customer 0 with departure time is: 0
Stage 2 at customer 8 with arrival time is: 49.0688
Stage 2 at customer 8 with departure time is: 49.0688
Stage 3 at customer 7 with arrival time is: 58.0356
Stage 3 at customer 7 with departure time is: 58.0356
Stage 4 at customer 10 with arrival time is: 110.86
Stage 4 at customer 10 with departure time is: 110.86
Stage 5 at customer 9 with arrival time is: 126.622
Stage 5 at customer 9 with departure time is: 126.622
Stage 6 at customer 3 with arrival time is: 183.629
Stage 6 at customer 3 with departure time is: 183.629
Stage 7 at customer 2 with arrival time is: 192.968
Stage 7 at customer 2 with departure time is: 192.968
Stage 8 at customer 6 with arrival time is: 227.59
Stage 8 at customer 6 with departure time is: 227.59
Stage 9 at customer 4 with arrival time is: 232.565
Stage 9 at customer 4 with departure time is: 232.565
Stage 10 at customer 5 with arrival time is: 237.613
Stage 10 at customer 5 with departure time is: 237.613
Stage 11 at customer 1 with arrival time is: 261.106
Stage 11 at customer 1 with departure time is: 261.106
Stage 12 at customer 11 with arrival time is: 276.919
Stage 12 at customer 11 with departure time is: 276.919
Truck arcs:
Arc 1 connecting 0 and 8 with cost 49.0688 
Arc 2 connecting 8 and 7 with cost 8.9668 
Arc 3 connecting 7 and 10 with cost 52.8245 
Arc 4 connecting 10 and 9 with cost 15.7618 
Arc 5 connecting 9 and 3 with cost 57.0068 
Arc 6 connecting 3 and 2 with cost 9.33925 
Arc 7 connecting 2 and 6 with cost 34.6218 
Arc 8 connecting 6 and 4 with cost 4.97544 
Arc 9 connecting 4 and 5 with cost 5.04817 
Arc 10 connecting 5 and 1 with cost 23.4925 
Arc 11 connecting 1 and 11 with cost 15.8133 
Done!
-------------------------Re-calculated objective-----------------------
276.919
------------------------------------------------------------------------
Solve time: 29.385
OBJECTIVE VALUE: 276.919, NUMBER OF SORTIES: 0.
Number of revisit: 0
In write mode
